
;this file is automatically generated: Fri Jan 03 16:26:56 GMT 2020

;declarations generated

(declare-fun obj_aec5c5ab_cd34_4613_a18f_00b6d0fd9037 ( Int) Int)
(declare-fun oclExcludes ( Int Int) Bool)
(declare-fun Cardinality ( Int) Int)
(declare-fun type_58244785_88fb_422d_93b2_013e0e8c8884_Class5 ( Int) Bool)
(declare-fun oclSelect ( Int Bool) Int)
(declare-fun Enum0 ( Int) Int)
(declare-fun Enum1 ( Int) Int)
(declare-fun Enum2 ( Int) Int)
(declare-fun class5_Class5BoolAttr0 ( Int) Bool)
(declare-fun container_ ( Int) Int)
(declare-fun oclIncludes ( Int Int) Bool)
(declare-fun class5_Class5IntAttr1 ( Int) Int)
(declare-fun ObjAt ( Int Int) Int)

;formula(s) generated
(assert (forall ((p Int)) (=> ( type_58244785_88fb_422d_93b2_013e0e8c8884_Class5 p )  (and (>= ( Enum1 ( obj_aec5c5ab_cd34_4613_a18f_00b6d0fd9037 p )  )  0) (<= ( Enum1 ( obj_aec5c5ab_cd34_4613_a18f_00b6d0fd9037 p )  )  5)))))
(assert (! (forall ((v Int)) (=> ( type_58244785_88fb_422d_93b2_013e0e8c8884_Class5 v )  (or (not ( class5_Class5BoolAttr0 ( obj_aec5c5ab_cd34_4613_a18f_00b6d0fd9037 v )  )  ) (and (forall ((v Int)) (=> ( type_58244785_88fb_422d_93b2_013e0e8c8884_Class5 v )  (= ( Enum1 ( obj_aec5c5ab_cd34_4613_a18f_00b6d0fd9037 v )  )  0))) (forall ((v Int)) (=> ( type_58244785_88fb_422d_93b2_013e0e8c8884_Class5 v )  (not (= ( Enum1 ( obj_aec5c5ab_cd34_4613_a18f_00b6d0fd9037 v )  )  0) ))))))):named l0))
(assert (! (or (forall ((v Int)) (=> ( type_58244785_88fb_422d_93b2_013e0e8c8884_Class5 v )  (>= ( class5_Class5IntAttr1 ( obj_aec5c5ab_cd34_4613_a18f_00b6d0fd9037 v )  )  0))) (forall ((v Int)) (=> ( type_58244785_88fb_422d_93b2_013e0e8c8884_Class5 v )  (= ( Enum1 ( obj_aec5c5ab_cd34_4613_a18f_00b6d0fd9037 v )  )  2)))):named l1))
(assert (exists ((o Int)) ( type_58244785_88fb_422d_93b2_013e0e8c8884_Class5 ( obj_aec5c5ab_cd34_4613_a18f_00b6d0fd9037 o )  ) ))

 ;end of formula 